(set-logic QF_BV)
(declare-fun _substvar_171_ () (_ BitVec 32))
(declare-fun _substvar_184_ () (_ BitVec 64))
(declare-fun _substvar_227_ () (_ BitVec 64))
(declare-fun _substvar_174_ () (_ BitVec 32))
(assert (= _substvar_174_ (bvadd ((_ extract 31 0) (_ bv18446744073709551586 64)) _substvar_171_)))
(assert (= false (bvsle _substvar_174_ (_ bv0 32))))
(assert (= _substvar_227_ ((_ sign_extend 32) _substvar_174_)))
(assert (= (_ bv0 64) (bvmul _substvar_227_ _substvar_184_)))
(check-sat)
(exit)
